
Gurobi 11.0.1 (win64) logging started Thu May 16 19:29:53 2024

Set parameter LogFile to value "output/solver_log32.txt"
Gurobi Optimizer version 11.0.1 build v11.0.1rc0 (win64 - Windows 11.0 (22631.2))

CPU model: 11th Gen Intel(R) Core(TM) i7-1165G7 @ 2.80GHz, instruction set [SSE2|AVX|AVX2|AVX512]
Thread count: 4 physical cores, 8 logical processors, using up to 8 threads

Optimize a model with 4843 rows, 1235 columns and 88939 nonzeros
Model fingerprint: 0x981e8431
Variable types: 568 continuous, 667 integer (667 binary)
Coefficient statistics:
  Matrix range     [4e-01, 1e+05]
  Objective range  [1e+00, 1e+02]
  Bounds range     [1e+00, 1e+00]
  RHS range        [1e-02, 1e+05]

User MIP start produced solution with objective 95856.7 (0.01s)
User MIP start produced solution with objective 95856.7 (0.01s)
Loaded user MIP start with objective 95856.7

Presolve removed 623 rows and 364 columns
Presolve time: 0.11s
Presolved: 4220 rows, 871 columns, 80045 nonzeros
Variable types: 519 continuous, 352 integer (350 binary)

Root relaxation: objective 9.598589e+04, 1072 iterations, 0.05 seconds (0.11 work units)

    Nodes    |    Current Node    |     Objective Bounds      |     Work
 Expl Unexpl |  Obj  Depth IntInf | Incumbent    BestBd   Gap | It/Node Time

     0     0 95985.8938    0    2 95856.6758 95985.8938  0.13%     -    0s
     0     0     cutoff    0      95856.6758 95856.6758  0.00%     -    0s

Explored 1 nodes (1573 simplex iterations) in 0.41 seconds (0.63 work units)
Thread count was 8 (of 8 available processors)

Solution count 2: 95856.7 95856.7 

Optimal solution found (tolerance 1.00e-04)
Best objective 9.585667576423e+04, best bound 9.585667576423e+04, gap 0.0000%
